1 1 -2 0
1 -1 3 0
1 1 -4 0
1 -2 -3 0
1 -2 1 0
1 -2 -5 0
1 -6 7 0
1 -6 -8 0
1 -9 10 0
1 -9 7 0
1 -9 8 0
1 9 3 0
1 9 -11 0
1 9 -6 0
1 -9 4 0
1 -3 -12 0
1 -3 2 0
1 3 -13 0
1 3 -14 0
1 3 -6 0
1 3 -4 0
1 -4 15 0
1 -4 -16 0
1 -4 9 0
1 4 2 0
1 4 3 0
1 -4 17 0
1 4 -13 0
1 4 6 0
1 -8 18 0
1 8 -2 0
1 8 -19 0
1 -8 -5 0
1 -5 16 0
1 5 -2 0
1 5 8 0
1 -5 -17 0
1 -5 -20 0
1 -14 -7 0
1 14 -12 0
1 -14 -11 0
1 -14 4 0
1 12 -10 0
1 12 -3 0
1 12 11 0
1 -12 -14 0
1 -12 4 0
1 13 21 0
1 -13 11 0
1 13 22 0
1 -13 23 0
1 -24 -21 0
1 -24 -25 0
1 24 3 0
1 24 11 0
1 -24 26 0
1 -24 23 0
1 26 -27 0
1 -26 -24 0
1 -26 9 0
1 -26 28 0
1 26 29 0
1 26 14 0
1 -26 -30 0
1 7 27 0
1 -7 -12 0
1 -7 31 0
1 -7 -28 0
1 7 26 0
1 7 -14 0
1 -11 -32 0
1 -11 24 0
1 11 -12 0
1 11 -31 0
1 11 33 0
1 11 6 0
1 10 -32 0
1 -10 16 0
1 10 -24 0
1 -10 9 0
1 10 -31 0
1 -10 17 0
1 -10 -13 0
1 10 -30 0
1 29 34 0
1 -29 26 0
1 -29 23 0
1 35 -7 0
1 -35 16 0
1 35 21 0
1 35 34 0
1 -35 -29 0
1 35 26 0
1 28 -7 0
1 28 -33 0
1 -28 -22 0
1 27 -32 0
1 27 7 0
1 27 -21 0
1 -27 -34 0
1 -27 28 0
1 -27 -22 0
1 23 -24 0
1 -23 28 0
1 -23 -13 0
1 -34 -27 0
1 -34 -35 0
1 -34 24 0
1 -34 -29 0
1 34 -23 0
1 22 27 0
1 22 24 0
1 -22 -21 0
1 -22 -36 0
1 22 31 0
1 22 -29 0
1 22 13 0
1 -21 -27 0
1 21 -36 0
1 -21 13 0
1 21 37 0
1 -21 -30 0
1 38 39 0
1 -38 -40 0
1 38 -41 0
1 -38 -5 0
1 18 40 0
1 18 -41 0
1 20 42 0
1 20 43 0
1 20 40 0
1 20 -44 0
1 20 5 0
1 -25 -42 0
1 -25 43 0
1 25 -8 0
1 -25 40 0
1 25 5 0
1 45 32 0
1 -45 18 0
1 -45 17 0
1 -41 32 0
1 41 -16 0
1 -41 -25 0
1 -41 -18 0
1 41 -17 0
1 -39 -40 0
1 -40 25 0
1 -40 39 0
1 40 -18 0
1 -40 20 0
1 17 16 0
1 -17 45 0
1 -17 -43 0
1 -17 -8 0
1 17 -11 0
1 -17 -29 0
1 17 -41 0
1 17 -44 0
1 -17 -5 0
1 -17 4 0
1 -16 10 0
1 -16 42 0
1 16 -8 0
1 -16 -11 0
1 -33 15 0
1 -33 -32 0
1 -33 45 0
1 -33 42 0
1 33 19 0
1 33 46 0
1 -33 41 0
1 33 47 0
1 -32 15 0
1 32 -27 0
1 -32 -45 0
1 -32 -43 0
1 -32 -33 0
1 -32 41 0
1 -32 48 0
1 -32 47 0
1 43 -32 0
1 -43 16 0
1 -43 -25 0
1 43 -20 0
1 -44 16 0
1 -44 36 0
1 44 -33 0
1 -44 -20 0
1 44 -30 0
1 -48 25 0
1 -48 -42 0
1 -31 15 0
1 -31 10 0
1 31 7 0
1 -31 21 0
1 -31 -43 0
1 -31 -19 0
1 31 -11 0
1 31 -26 0
1 -31 30 0
1 -30 -7 0
1 -30 -21 0
1 -30 43 0
1 -30 19 0
1 30 11 0
1 -30 -44 0
1 -30 -47 0
1 36 -15 0
1 36 22 0
1 37 -21 0
1 -37 43 0
1 -37 -36 0
1 37 -46 0
1 37 22 0
1 -46 -15 0
1 -46 31 0
1 46 -33 0
1 46 -37 0
1 -46 -30 0
1 15 32 0
1 -15 -36 0
1 -15 31 0
1 15 33 0
1 15 -4 0
1 19 -8 0
1 -19 31 0
1 -19 -33 0
1 -19 30 0
1 47 19 0
1 47 -33 0
1 -47 -37 0
